(declare-const c_0 Real)
(declare-const c_1 Real)
(declare-const c_2 Real)
(declare-const c_3 Real)
(declare-const c_4 Real)
(declare-const c_5 Real)
(declare-const c_6 Real)
(declare-const c_7 Real)
(declare-const c_8 Real)
(declare-const c_9 Real)
(declare-const c_10 Real)
(declare-const c_11 Real)
(declare-const s_0 Real)
(declare-const s_1 Real)
(declare-const s_2 Real)
(declare-const s_3 Real)
(declare-const s_4 Real)
(declare-const s_5 Real)
(declare-const s_6 Real)
(declare-const s_7 Real)
(declare-const s_8 Real)
(declare-const s_9 Real)
(declare-const s_10 Real)
(declare-const s_11 Real)
(assert (forall ((a Real) (b Real) (i Real) ) (=> (and (>= (+ (* 1024 1) (* 1 a ) ) 0) (>= (+ (* 1023 1) (* (- 1) a ) ) 0) (>= (+ (* 1024 1) (* 1 b ) ) 0) (>= (+ (* 1023 1) (* (- 1) b ) ) 0) (>= (+ (* 1024 1) (* 1 i ) ) 0) (>= (+ (* 1023 1) (* (- 1) i ) ) 0) ) (>= (+ (* 1 a s_1 ) (* 1 b s_2 ) (* 1 i s_3 ) (* 1 s_0 ) ) 0) )))
(assert (forall ((a Real) (b Real) (i Real) ) (=> (and (>= (+ (* 1024 1) (* 1 a ) ) 0) (>= (+ (* 1023 1) (* (- 1) a ) ) 0) (>= (+ (* 1024 1) (* 1 b ) ) 0) (>= (+ (* 1023 1) (* (- 1) b ) ) 0) (>= (+ (* 1024 1) (* 1 i ) ) 0) (>= (+ (* 1023 1) (* (- 1) i ) ) 0) ) (>= (+ (* 1 a c_1 ) (* 1 b c_2 ) (* 1 c_0 ) (* 1 c_3 i ) ) 0) )))
(assert (forall ((a Real) (b Real) (i Real) ) (=> (and (>= (+ (* 1023 1) (* (- 1) i ) ) 0) (>= (+ (* 1024 1) (* 1 i ) ) 0) (>= (+ (* 1023 1) (* (- 1) b ) ) 0) (>= (+ (* 1024 1) (* 1 b ) ) 0) (>= (+ (* 1023 1) (* (- 1) a ) ) 0) (>= (+ (* 1024 1) (* 1 a ) ) 0) (>= (+ (* 1 a s_1 ) (* 1 b s_2 ) (* 1 i s_3 ) (* 1 s_0 ) ) 0) ) (>= (+ (* 1 s_4 ) (* 5 s_5 ) (* 3 s_6 ) ) 0) )))
(assert (forall ((a Real) (b Real) (i Real) ) (=> (and (>= (+ (* 1023 1) (* (- 1) i ) ) 0) (>= (+ (* 1024 1) (* 1 i ) ) 0) (>= (+ (* 1023 1) (* (- 1) b ) ) 0) (>= (+ (* 1024 1) (* 1 b ) ) 0) (>= (+ (* 1023 1) (* (- 1) a ) ) 0) (>= (+ (* 1024 1) (* 1 a ) ) 0) (>= (+ (* 1 a s_1 ) (* 1 b s_2 ) (* 1 i s_3 ) (* 1 s_0 ) ) 0) ) (>= (+ (* 1 c_4 ) (* 5 c_5 ) (* 3 c_6 ) ) 0) )))
(assert (forall ((a Real) (b Real) (i Real) ) (=> (and (>= (+ (* 1023 1) (* (- 1) i ) ) 0) (>= (+ (* 1024 1) (* 1 i ) ) 0) (>= (+ (* 1023 1) (* (- 1) b ) ) 0) (>= (+ (* 1024 1) (* 1 b ) ) 0) (>= (+ (* 1023 1) (* (- 1) a ) ) 0) (>= (+ (* 1024 1) (* 1 a ) ) 0) (>= (+ (* 1 a s_1 ) (* 1 b s_2 ) (* 1 i s_3 ) (* 1 s_0 ) ) 0) ) (>= (+ (* (- 1) 1) (* 1 a c_1 ) (* 1 b c_2 ) (* 1 c_0 ) (* 1 c_3 i ) (* (- 1) c_4 ) (* (- 5) c_5 ) (* (- 3) c_6 ) ) 0) )))
(assert (forall ((a Real) (b Real) (i Real) ) (=> (and (>= (+ (* 9 1) (* (- 1) i ) ) 0) (>= (+ (* 5 1) (* (- 1) a ) ) 0) (>= (+ (* (- 5) 1) (* 1 a ) ) 0) (>= (+ (* 3 1) (* (- 1) b ) ) 0) (>= (+ (* (- 3) 1) (* 1 b ) ) 0) (>= (* (- 1) i ) 0) (>= (* 1 i ) 0) (>= (+ (* 1 a s_5 ) (* 1 b s_6 ) (* 1 i s_7 ) (* 1 s_4 ) ) 0) ) (>= (+ (* 1 a s_5 ) (* 1 b s_6 ) (* 1 i s_7 ) (* 1 s_4 ) ) 0) )))
(assert (forall ((a Real) (b Real) (i Real) ) (=> (and (>= (+ (* 9 1) (* (- 1) i ) ) 0) (>= (+ (* 5 1) (* (- 1) a ) ) 0) (>= (+ (* (- 5) 1) (* 1 a ) ) 0) (>= (+ (* 3 1) (* (- 1) b ) ) 0) (>= (+ (* (- 3) 1) (* 1 b ) ) 0) (>= (* (- 1) i ) 0) (>= (* 1 i ) 0) (>= (+ (* 1 a s_5 ) (* 1 b s_6 ) (* 1 i s_7 ) (* 1 s_4 ) ) 0) ) (>= (+ (* 1 a c_5 ) (* 1 b c_6 ) (* 1 c_4 ) (* 1 c_7 i ) ) 0) )))
(assert (forall ((a Real) (b Real) (i Real) ) (=> (and (>= (+ (* 9 1) (* (- 1) i ) ) 0) (>= (+ (* 5 1) (* (- 1) a ) ) 0) (>= (+ (* (- 5) 1) (* 1 a ) ) 0) (>= (+ (* 3 1) (* (- 1) b ) ) 0) (>= (+ (* (- 3) 1) (* 1 b ) ) 0) (>= (* (- 1) i ) 0) (>= (* 1 i ) 0) (>= (+ (* 1 a s_5 ) (* 1 b s_6 ) (* 1 i s_7 ) (* 1 s_4 ) ) 0) ) (>= (* (- 1) 1) 0) )))
(assert (forall ((a Real) (b Real) (i Real) ) (=> (and (>= (+ (* (- 10) 1) (* 1 i ) ) 0) (>= (+ (* 5 1) (* (- 1) a ) ) 0) (>= (+ (* (- 5) 1) (* 1 a ) ) 0) (>= (+ (* 3 1) (* (- 1) b ) ) 0) (>= (+ (* (- 3) 1) (* 1 b ) ) 0) (>= (* (- 1) i ) 0) (>= (* 1 i ) 0) (>= (+ (* 1 a s_5 ) (* 1 b s_6 ) (* 1 i s_7 ) (* 1 s_4 ) ) 0) ) (>= (+ (* 1 a s_9 ) (* 1 b s_10 ) (* 1 i s_11 ) (* 1 s_8 ) ) 0) )))
(assert (forall ((a Real) (b Real) (i Real) ) (=> (and (>= (+ (* (- 10) 1) (* 1 i ) ) 0) (>= (+ (* 5 1) (* (- 1) a ) ) 0) (>= (+ (* (- 5) 1) (* 1 a ) ) 0) (>= (+ (* 3 1) (* (- 1) b ) ) 0) (>= (+ (* (- 3) 1) (* 1 b ) ) 0) (>= (* (- 1) i ) 0) (>= (* 1 i ) 0) (>= (+ (* 1 a s_5 ) (* 1 b s_6 ) (* 1 i s_7 ) (* 1 s_4 ) ) 0) ) (>= (+ (* 1 a c_9 ) (* 1 b c_10 ) (* 1 c_11 i ) (* 1 c_8 ) ) 0) )))

(check-sat)
(get-model)
